CPXPARAM_TimeLimit                               7200
CPXPARAM_Read_DataCheck                          1
Parallel mode: deterministic, using up to 8 threads for concurrent optimization.
Tried aggregator 1 time.
LP Presolve eliminated 120 rows and 0 columns.
Reduced LP has 9990 rows, 1801 columns, and 29205 nonzeros.
Presolve time = 0.00 sec. (4.50 ticks)

Iteration log . . .
Iteration:     1   Dual objective     =           896.000000
Perturbation started.
Iteration:   215   Dual objective     =           896.000000
Initializing dual steep norms . . .
Iteration:   216   Dual objective     =           896.000163
Iteration:   475   Dual objective     =           896.016262
Iteration:   729   Dual objective     =           896.016932
Iteration:   977   Dual objective     =           896.017193
Iteration:  1180   Dual objective     =           896.017293
Iteration:  1381   Dual objective     =           896.018833
Iteration:  1652   Dual objective     =           896.019018
Iteration:  1868   Dual objective     =           927.796374
Iteration:  2156   Dual objective     =           938.728804
Iteration:  2425   Dual objective     =           946.468969
Iteration:  2664   Dual objective     =           984.399106
Iteration:  2991   Dual objective     =           988.552397
Iteration:  3243   Dual objective     =           988.905860
Removing perturbation.

Dual simplex solved model.

